
--- Job albertitiVErde.gms Start 02/18/23 14:30:21 41.5.0 2a5a4ddc WEX-WEI x86 64bit/MS Windows
--- Applying:
    C:\GAMS\41\gmsprmNT.txt
--- GAMS Parameters defined
    Input "C:\Users\elpin\OneDrive - Universidad de los Andes\7mo_semestre\MOS\labs\Labs_MOS\lab1\albertitiVErde.gms"
    PageSize 0
    ScrDir "C:\Users\elpin\OneDrive - Universidad de los Andes\7mo_semestre\MOS\labs\Labs_MOS\lab1\225a\"
    SysDir C:\GAMS\41\
    LogOption 3
    ErrMsg 1
    ErrorLog 99
    IDE 1
    LstTitleLeftAligned 1
Licensee: GAMS Demo license for William Mendez           G230124|0002CO-GEN
          Universidad de los Andes, Colombia                       DL083586
          C:\GAMS\41\gamslice.txt
          w.mendez@uniandes.edu.co, William Mendez                         
          Demo license for demonstration and instructional purposes only
Processor information: 1 socket(s), 4 core(s), and 8 thread(s) available
GAMS 41.5.0   Copyright (C) 1987-2023 GAMS Development. All rights reserved
--- Starting compilation
--- albertitiVErde.gms(40) 3 Mb
--- Starting execution: elapsed 0:00:00.011
--- albertitiVErde.gms(36) 4 Mb
--- Generating LP model transportation
--- albertitiVErde.gms(38) 4 Mb
---   9 rows  16 columns  46 non-zeroes
--- Range statistics (absolute non-zero finite values)
--- RHS       [min, max] : [ 7.500E+01, 2.500E+02] - Zero values observed as well
--- Bound     [min, max] : [        NA,        NA] - Zero values observed as well
--- Matrix    [min, max] : [ 1.000E+00, 1.100E+01]
--- Executing CPLEX (Solvelink=2): elapsed 0:00:00.039

IBM ILOG CPLEX   41.5.0 2a5a4ddc Jan 3, 2023           WEI x86 64bit/MS Window

--- *** This solver runs with a demo license. No commercial use.

*** Error Cannot open parameter file "C:\Users\elpin\OneDrive - Universidad de los Andes\7mo_semestre\MOS\labs\Labs_MOS\lab1\cplex.opt"
*** Error Error code = 2; No such file or directory

--- GMO setup time: 0.00s
--- GMO memory 0.50 Mb (peak 0.50 Mb)
--- Dictionary memory 0.00 Mb
--- Cplex 22.1.0.0 link memory 0.00 Mb (peak 0.00 Mb)
--- Starting Cplex

Version identifier: 22.1.0.0 | 2022-03-09 | 1a383f8ce
CPXPARAM_Advance                                 0
CPXPARAM_Simplex_Display                         2
CPXPARAM_Threads                                 1
CPXPARAM_MIP_Display                             4
CPXPARAM_MIP_Pool_Capacity                       0
CPXPARAM_MIP_Tolerances_AbsMIPGap                0
Tried aggregator 1 time.
LP Presolve eliminated 0 rows and 1 columns.
Reduced LP has 8 rows, 15 columns, and 30 nonzeros.
Presolve time = 0.00 sec. (0.01 ticks)

Iteration      Dual Objective            In Variable           Out Variable
     1            1600.000000               x(S1,D4)       demand(D4) slack
     2            2200.000000               x(S2,D2)       demand(D2) slack
     3            3075.000000               x(S3,D5)       demand(D5) slack
     4            3375.000000               x(S3,D1)       demand(D1) slack
     5            3825.000000               x(S1,D3)       demand(D3) slack
     6            3950.000000               x(S2,D3)       supply(S1) slack
     7            3950.000000               x(S2,D4)               x(S1,D3)
     8            4025.000000               x(S3,D2)       supply(S2) slack

--- LP status (3): infeasible.
--- Cplex Time: 0.00sec (det. 0.02 ticks)


Model has been proven infeasible

--- Reading solution for model transportation
--- Executing after solve: elapsed 0:00:00.224
--- albertitiVErde.gms(40) 4 Mb
*** Status: Normal completion
--- Job albertitiVErde.gms Stop 02/18/23 14:30:21 elapsed 0:00:00.225
